g9 1 1 0 0 20130109 0 4 0 240	# problem braxy
 254 0 1 0 0	# vars, constraints, objectives, ranges, eqns
 0 1	# nonlinear constraints, objectives
 0 0	# network constraints: nonlinear, linear
 0 254 0	# nonlinear vars in constraints, objectives, both
 0 0 0 1	# linear network variables; functions; arith, flags
 0 0 0 0 0	# discrete variables: binary, integer, nonlinear (b,c,o)
 0 254	# nonzeros in Jacobian, gradients
 0 0	# max name lengths: constraints, variables
 0 0 0 0 512	# common exprs: b,c,o,c1,o1
V254 1 1
0 1
n0
V255 2 1
0 -1
1 1
n0
V256 2 1
1 -1
2 1
n0
V257 2 1
2 -1
3 1
n0
V258 2 1
3 -1
4 1
n0
V259 2 1
4 -1
5 1
n0
V260 2 1
5 -1
6 1
n0
V261 2 1
6 -1
7 1
n0
V262 2 1
7 -1
8 1
n0
V263 2 1
8 -1
9 1
n0
V264 2 1
9 -1
10 1
n0
V265 2 1
10 -1
11 1
n0
V266 2 1
11 -1
12 1
n0
V267 2 1
12 -1
13 1
n0
V268 2 1
13 -1
14 1
n0
V269 2 1
14 -1
15 1
n0
V270 2 1
15 -1
16 1
n0
V271 2 1
16 -1
17 1
n0
V272 2 1
17 -1
18 1
n0
V273 2 1
18 -1
19 1
n0
V274 2 1
19 -1
20 1
n0
V275 2 1
20 -1
21 1
n0
V276 2 1
21 -1
22 1
n0
V277 2 1
22 -1
23 1
n0
V278 2 1
23 -1
24 1
n0
V279 2 1
24 -1
25 1
n0
V280 2 1
25 -1
26 1
n0
V281 2 1
26 -1
27 1
n0
V282 2 1
27 -1
28 1
n0
V283 2 1
28 -1
29 1
n0
V284 2 1
29 -1
30 1
n0
V285 2 1
30 -1
31 1
n0
V286 2 1
31 -1
32 1
n0
V287 2 1
32 -1
33 1
n0
V288 2 1
33 -1
34 1
n0
V289 2 1
34 -1
35 1
n0
V290 2 1
35 -1
36 1
n0
V291 2 1
36 -1
37 1
n0
V292 2 1
37 -1
38 1
n0
V293 2 1
38 -1
39 1
n0
V294 2 1
39 -1
40 1
n0
V295 2 1
40 -1
41 1
n0
V296 2 1
41 -1
42 1
n0
V297 2 1
42 -1
43 1
n0
V298 2 1
43 -1
44 1
n0
V299 2 1
44 -1
45 1
n0
V300 2 1
45 -1
46 1
n0
V301 2 1
46 -1
47 1
n0
V302 2 1
47 -1
48 1
n0
V303 2 1
48 -1
49 1
n0
V304 2 1
49 -1
50 1
n0
V305 2 1
50 -1
51 1
n0
V306 2 1
51 -1
52 1
n0
V307 2 1
52 -1
53 1
n0
V308 2 1
53 -1
54 1
n0
V309 2 1
54 -1
55 1
n0
V310 2 1
55 -1
56 1
n0
V311 2 1
56 -1
57 1
n0
V312 2 1
57 -1
58 1
n0
V313 2 1
58 -1
59 1
n0
V314 2 1
59 -1
60 1
n0
V315 2 1
60 -1
61 1
n0
V316 2 1
61 -1
62 1
n0
V317 2 1
62 -1
63 1
n0
V318 2 1
63 -1
64 1
n0
V319 2 1
64 -1
65 1
n0
V320 2 1
65 -1
66 1
n0
V321 2 1
66 -1
67 1
n0
V322 2 1
67 -1
68 1
n0
V323 2 1
68 -1
69 1
n0
V324 2 1
69 -1
70 1
n0
V325 2 1
70 -1
71 1
n0
V326 2 1
71 -1
72 1
n0
V327 2 1
72 -1
73 1
n0
V328 2 1
73 -1
74 1
n0
V329 2 1
74 -1
75 1
n0
V330 2 1
75 -1
76 1
n0
V331 2 1
76 -1
77 1
n0
V332 2 1
77 -1
78 1
n0
V333 2 1
78 -1
79 1
n0
V334 2 1
79 -1
80 1
n0
V335 2 1
80 -1
81 1
n0
V336 2 1
81 -1
82 1
n0
V337 2 1
82 -1
83 1
n0
V338 2 1
83 -1
84 1
n0
V339 2 1
84 -1
85 1
n0
V340 2 1
85 -1
86 1
n0
V341 2 1
86 -1
87 1
n0
V342 2 1
87 -1
88 1
n0
V343 2 1
88 -1
89 1
n0
V344 2 1
89 -1
90 1
n0
V345 2 1
90 -1
91 1
n0
V346 2 1
91 -1
92 1
n0
V347 2 1
92 -1
93 1
n0
V348 2 1
93 -1
94 1
n0
V349 2 1
94 -1
95 1
n0
V350 2 1
95 -1
96 1
n0
V351 2 1
96 -1
97 1
n0
V352 2 1
97 -1
98 1
n0
V353 2 1
98 -1
99 1
n0
V354 2 1
99 -1
100 1
n0
V355 2 1
100 -1
101 1
n0
V356 2 1
101 -1
102 1
n0
V357 2 1
102 -1
103 1
n0
V358 2 1
103 -1
104 1
n0
V359 2 1
104 -1
105 1
n0
V360 2 1
105 -1
106 1
n0
V361 2 1
106 -1
107 1
n0
V362 2 1
107 -1
108 1
n0
V363 2 1
108 -1
109 1
n0
V364 2 1
109 -1
110 1
n0
V365 2 1
110 -1
111 1
n0
V366 2 1
111 -1
112 1
n0
V367 2 1
112 -1
113 1
n0
V368 2 1
113 -1
114 1
n0
V369 2 1
114 -1
115 1
n0
V370 2 1
115 -1
116 1
n0
V371 2 1
116 -1
117 1
n0
V372 2 1
117 -1
118 1
n0
V373 2 1
118 -1
119 1
n0
V374 2 1
119 -1
120 1
n0
V375 2 1
120 -1
121 1
n0
V376 2 1
121 -1
122 1
n0
V377 2 1
122 -1
123 1
n0
V378 2 1
123 -1
124 1
n0
V379 2 1
124 -1
125 1
n0
V380 2 1
125 -1
126 1
n0
V381 1 1
126 -1
n5
V382 1 1
127 1
n0
V383 2 1
127 -1
128 1
n0
V384 2 1
128 -1
129 1
n0
V385 2 1
129 -1
130 1
n0
V386 2 1
130 -1
131 1
n0
V387 2 1
131 -1
132 1
n0
V388 2 1
132 -1
133 1
n0
V389 2 1
133 -1
134 1
n0
V390 2 1
134 -1
135 1
n0
V391 2 1
135 -1
136 1
n0
V392 2 1
136 -1
137 1
n0
V393 2 1
137 -1
138 1
n0
V394 2 1
138 -1
139 1
n0
V395 2 1
139 -1
140 1
n0
V396 2 1
140 -1
141 1
n0
V397 2 1
141 -1
142 1
n0
V398 2 1
142 -1
143 1
n0
V399 2 1
143 -1
144 1
n0
V400 2 1
144 -1
145 1
n0
V401 2 1
145 -1
146 1
n0
V402 2 1
146 -1
147 1
n0
V403 2 1
147 -1
148 1
n0
V404 2 1
148 -1
149 1
n0
V405 2 1
149 -1
150 1
n0
V406 2 1
150 -1
151 1
n0
V407 2 1
151 -1
152 1
n0
V408 2 1
152 -1
153 1
n0
V409 2 1
153 -1
154 1
n0
V410 2 1
154 -1
155 1
n0
V411 2 1
155 -1
156 1
n0
V412 2 1
156 -1
157 1
n0
V413 2 1
157 -1
158 1
n0
V414 2 1
158 -1
159 1
n0
V415 2 1
159 -1
160 1
n0
V416 2 1
160 -1
161 1
n0
V417 2 1
161 -1
162 1
n0
V418 2 1
162 -1
163 1
n0
V419 2 1
163 -1
164 1
n0
V420 2 1
164 -1
165 1
n0
V421 2 1
165 -1
166 1
n0
V422 2 1
166 -1
167 1
n0
V423 2 1
167 -1
168 1
n0
V424 2 1
168 -1
169 1
n0
V425 2 1
169 -1
170 1
n0
V426 2 1
170 -1
171 1
n0
V427 2 1
171 -1
172 1
n0
V428 2 1
172 -1
173 1
n0
V429 2 1
173 -1
174 1
n0
V430 2 1
174 -1
175 1
n0
V431 2 1
175 -1
176 1
n0
V432 2 1
176 -1
177 1
n0
V433 2 1
177 -1
178 1
n0
V434 2 1
178 -1
179 1
n0
V435 2 1
179 -1
180 1
n0
V436 2 1
180 -1
181 1
n0
V437 2 1
181 -1
182 1
n0
V438 2 1
182 -1
183 1
n0
V439 2 1
183 -1
184 1
n0
V440 2 1
184 -1
185 1
n0
V441 2 1
185 -1
186 1
n0
V442 2 1
186 -1
187 1
n0
V443 2 1
187 -1
188 1
n0
V444 2 1
188 -1
189 1
n0
V445 2 1
189 -1
190 1
n0
V446 2 1
190 -1
191 1
n0
V447 2 1
191 -1
192 1
n0
V448 2 1
192 -1
193 1
n0
V449 2 1
193 -1
194 1
n0
V450 2 1
194 -1
195 1
n0
V451 2 1
195 -1
196 1
n0
V452 2 1
196 -1
197 1
n0
V453 2 1
197 -1
198 1
n0
V454 2 1
198 -1
199 1
n0
V455 2 1
199 -1
200 1
n0
V456 2 1
200 -1
201 1
n0
V457 2 1
201 -1
202 1
n0
V458 2 1
202 -1
203 1
n0
V459 2 1
203 -1
204 1
n0
V460 2 1
204 -1
205 1
n0
V461 2 1
205 -1
206 1
n0
V462 2 1
206 -1
207 1
n0
V463 2 1
207 -1
208 1
n0
V464 2 1
208 -1
209 1
n0
V465 2 1
209 -1
210 1
n0
V466 2 1
210 -1
211 1
n0
V467 2 1
211 -1
212 1
n0
V468 2 1
212 -1
213 1
n0
V469 2 1
213 -1
214 1
n0
V470 2 1
214 -1
215 1
n0
V471 2 1
215 -1
216 1
n0
V472 2 1
216 -1
217 1
n0
V473 2 1
217 -1
218 1
n0
V474 2 1
218 -1
219 1
n0
V475 2 1
219 -1
220 1
n0
V476 2 1
220 -1
221 1
n0
V477 2 1
221 -1
222 1
n0
V478 2 1
222 -1
223 1
n0
V479 2 1
223 -1
224 1
n0
V480 2 1
224 -1
225 1
n0
V481 2 1
225 -1
226 1
n0
V482 2 1
226 -1
227 1
n0
V483 2 1
227 -1
228 1
n0
V484 2 1
228 -1
229 1
n0
V485 2 1
229 -1
230 1
n0
V486 2 1
230 -1
231 1
n0
V487 2 1
231 -1
232 1
n0
V488 2 1
232 -1
233 1
n0
V489 2 1
233 -1
234 1
n0
V490 2 1
234 -1
235 1
n0
V491 2 1
235 -1
236 1
n0
V492 2 1
236 -1
237 1
n0
V493 2 1
237 -1
238 1
n0
V494 2 1
238 -1
239 1
n0
V495 2 1
239 -1
240 1
n0
V496 2 1
240 -1
241 1
n0
V497 2 1
241 -1
242 1
n0
V498 2 1
242 -1
243 1
n0
V499 2 1
243 -1
244 1
n0
V500 2 1
244 -1
245 1
n0
V501 2 1
245 -1
246 1
n0
V502 2 1
246 -1
247 1
n0
V503 2 1
247 -1
248 1
n0
V504 2 1
248 -1
249 1
n0
V505 2 1
249 -1
250 1
n0
V506 2 1
250 -1
251 1
n0
V507 2 1
251 -1
252 1
n0
V508 2 1
252 -1
253 1
n0
V509 1 1
253 -1
n1
V510 0 1
o39
o0
o5
v254
n2
o5
v382
n2
V511 0 1
o39
o0
o5
v255
n2
o5
v383
n2
V512 0 1
o39
o0
o5
v256
n2
o5
v384
n2
V513 0 1
o39
o0
o5
v257
n2
o5
v385
n2
V514 0 1
o39
o0
o5
v258
n2
o5
v386
n2
V515 0 1
o39
o0
o5
v259
n2
o5
v387
n2
V516 0 1
o39
o0
o5
v260
n2
o5
v388
n2
V517 0 1
o39
o0
o5
v261
n2
o5
v389
n2
V518 0 1
o39
o0
o5
v262
n2
o5
v390
n2
V519 0 1
o39
o0
o5
v263
n2
o5
v391
n2
V520 0 1
o39
o0
o5
v264
n2
o5
v392
n2
V521 0 1
o39
o0
o5
v265
n2
o5
v393
n2
V522 0 1
o39
o0
o5
v266
n2
o5
v394
n2
V523 0 1
o39
o0
o5
v267
n2
o5
v395
n2
V524 0 1
o39
o0
o5
v268
n2
o5
v396
n2
V525 0 1
o39
o0
o5
v269
n2
o5
v397
n2
V526 0 1
o39
o0
o5
v270
n2
o5
v398
n2
V527 0 1
o39
o0
o5
v271
n2
o5
v399
n2
V528 0 1
o39
o0
o5
v272
n2
o5
v400
n2
V529 0 1
o39
o0
o5
v273
n2
o5
v401
n2
V530 0 1
o39
o0
o5
v274
n2
o5
v402
n2
V531 0 1
o39
o0
o5
v275
n2
o5
v403
n2
V532 0 1
o39
o0
o5
v276
n2
o5
v404
n2
V533 0 1
o39
o0
o5
v277
n2
o5
v405
n2
V534 0 1
o39
o0
o5
v278
n2
o5
v406
n2
V535 0 1
o39
o0
o5
v279
n2
o5
v407
n2
V536 0 1
o39
o0
o5
v280
n2
o5
v408
n2
V537 0 1
o39
o0
o5
v281
n2
o5
v409
n2
V538 0 1
o39
o0
o5
v282
n2
o5
v410
n2
V539 0 1
o39
o0
o5
v283
n2
o5
v411
n2
V540 0 1
o39
o0
o5
v284
n2
o5
v412
n2
V541 0 1
o39
o0
o5
v285
n2
o5
v413
n2
V542 0 1
o39
o0
o5
v286
n2
o5
v414
n2
V543 0 1
o39
o0
o5
v287
n2
o5
v415
n2
V544 0 1
o39
o0
o5
v288
n2
o5
v416
n2
V545 0 1
o39
o0
o5
v289
n2
o5
v417
n2
V546 0 1
o39
o0
o5
v290
n2
o5
v418
n2
V547 0 1
o39
o0
o5
v291
n2
o5
v419
n2
V548 0 1
o39
o0
o5
v292
n2
o5
v420
n2
V549 0 1
o39
o0
o5
v293
n2
o5
v421
n2
V550 0 1
o39
o0
o5
v294
n2
o5
v422
n2
V551 0 1
o39
o0
o5
v295
n2
o5
v423
n2
V552 0 1
o39
o0
o5
v296
n2
o5
v424
n2
V553 0 1
o39
o0
o5
v297
n2
o5
v425
n2
V554 0 1
o39
o0
o5
v298
n2
o5
v426
n2
V555 0 1
o39
o0
o5
v299
n2
o5
v427
n2
V556 0 1
o39
o0
o5
v300
n2
o5
v428
n2
V557 0 1
o39
o0
o5
v301
n2
o5
v429
n2
V558 0 1
o39
o0
o5
v302
n2
o5
v430
n2
V559 0 1
o39
o0
o5
v303
n2
o5
v431
n2
V560 0 1
o39
o0
o5
v304
n2
o5
v432
n2
V561 0 1
o39
o0
o5
v305
n2
o5
v433
n2
V562 0 1
o39
o0
o5
v306
n2
o5
v434
n2
V563 0 1
o39
o0
o5
v307
n2
o5
v435
n2
V564 0 1
o39
o0
o5
v308
n2
o5
v436
n2
V565 0 1
o39
o0
o5
v309
n2
o5
v437
n2
V566 0 1
o39
o0
o5
v310
n2
o5
v438
n2
V567 0 1
o39
o0
o5
v311
n2
o5
v439
n2
V568 0 1
o39
o0
o5
v312
n2
o5
v440
n2
V569 0 1
o39
o0
o5
v313
n2
o5
v441
n2
V570 0 1
o39
o0
o5
v314
n2
o5
v442
n2
V571 0 1
o39
o0
o5
v315
n2
o5
v443
n2
V572 0 1
o39
o0
o5
v316
n2
o5
v444
n2
V573 0 1
o39
o0
o5
v317
n2
o5
v445
n2
V574 0 1
o39
o0
o5
v318
n2
o5
v446
n2
V575 0 1
o39
o0
o5
v319
n2
o5
v447
n2
V576 0 1
o39
o0
o5
v320
n2
o5
v448
n2
V577 0 1
o39
o0
o5
v321
n2
o5
v449
n2
V578 0 1
o39
o0
o5
v322
n2
o5
v450
n2
V579 0 1
o39
o0
o5
v323
n2
o5
v451
n2
V580 0 1
o39
o0
o5
v324
n2
o5
v452
n2
V581 0 1
o39
o0
o5
v325
n2
o5
v453
n2
V582 0 1
o39
o0
o5
v326
n2
o5
v454
n2
V583 0 1
o39
o0
o5
v327
n2
o5
v455
n2
V584 0 1
o39
o0
o5
v328
n2
o5
v456
n2
V585 0 1
o39
o0
o5
v329
n2
o5
v457
n2
V586 0 1
o39
o0
o5
v330
n2
o5
v458
n2
V587 0 1
o39
o0
o5
v331
n2
o5
v459
n2
V588 0 1
o39
o0
o5
v332
n2
o5
v460
n2
V589 0 1
o39
o0
o5
v333
n2
o5
v461
n2
V590 0 1
o39
o0
o5
v334
n2
o5
v462
n2
V591 0 1
o39
o0
o5
v335
n2
o5
v463
n2
V592 0 1
o39
o0
o5
v336
n2
o5
v464
n2
V593 0 1
o39
o0
o5
v337
n2
o5
v465
n2
V594 0 1
o39
o0
o5
v338
n2
o5
v466
n2
V595 0 1
o39
o0
o5
v339
n2
o5
v467
n2
V596 0 1
o39
o0
o5
v340
n2
o5
v468
n2
V597 0 1
o39
o0
o5
v341
n2
o5
v469
n2
V598 0 1
o39
o0
o5
v342
n2
o5
v470
n2
V599 0 1
o39
o0
o5
v343
n2
o5
v471
n2
V600 0 1
o39
o0
o5
v344
n2
o5
v472
n2
V601 0 1
o39
o0
o5
v345
n2
o5
v473
n2
V602 0 1
o39
o0
o5
v346
n2
o5
v474
n2
V603 0 1
o39
o0
o5
v347
n2
o5
v475
n2
V604 0 1
o39
o0
o5
v348
n2
o5
v476
n2
V605 0 1
o39
o0
o5
v349
n2
o5
v477
n2
V606 0 1
o39
o0
o5
v350
n2
o5
v478
n2
V607 0 1
o39
o0
o5
v351
n2
o5
v479
n2
V608 0 1
o39
o0
o5
v352
n2
o5
v480
n2
V609 0 1
o39
o0
o5
v353
n2
o5
v481
n2
V610 0 1
o39
o0
o5
v354
n2
o5
v482
n2
V611 0 1
o39
o0
o5
v355
n2
o5
v483
n2
V612 0 1
o39
o0
o5
v356
n2
o5
v484
n2
V613 0 1
o39
o0
o5
v357
n2
o5
v485
n2
V614 0 1
o39
o0
o5
v358
n2
o5
v486
n2
V615 0 1
o39
o0
o5
v359
n2
o5
v487
n2
V616 0 1
o39
o0
o5
v360
n2
o5
v488
n2
V617 0 1
o39
o0
o5
v361
n2
o5
v489
n2
V618 0 1
o39
o0
o5
v362
n2
o5
v490
n2
V619 0 1
o39
o0
o5
v363
n2
o5
v491
n2
V620 0 1
o39
o0
o5
v364
n2
o5
v492
n2
V621 0 1
o39
o0
o5
v365
n2
o5
v493
n2
V622 0 1
o39
o0
o5
v366
n2
o5
v494
n2
V623 0 1
o39
o0
o5
v367
n2
o5
v495
n2
V624 0 1
o39
o0
o5
v368
n2
o5
v496
n2
V625 0 1
o39
o0
o5
v369
n2
o5
v497
n2
V626 0 1
o39
o0
o5
v370
n2
o5
v498
n2
V627 0 1
o39
o0
o5
v371
n2
o5
v499
n2
V628 0 1
o39
o0
o5
v372
n2
o5
v500
n2
V629 0 1
o39
o0
o5
v373
n2
o5
v501
n2
V630 0 1
o39
o0
o5
v374
n2
o5
v502
n2
V631 0 1
o39
o0
o5
v375
n2
o5
v503
n2
V632 0 1
o39
o0
o5
v376
n2
o5
v504
n2
V633 0 1
o39
o0
o5
v377
n2
o5
v505
n2
V634 0 1
o39
o0
o5
v378
n2
o5
v506
n2
V635 0 1
o39
o0
o5
v379
n2
o5
v507
n2
V636 0 1
o39
o0
o5
v380
n2
o5
v508
n2
V637 0 1
o39
o0
o5
v381
n2
o5
v509
n2
V638 0 1
o3
v510
o39
v127
V639 0 1
o3
v511
o0
o39
v127
o39
v128
V640 0 1
o3
v512
o0
o39
v128
o39
v129
V641 0 1
o3
v513
o0
o39
v129
o39
v130
V642 0 1
o3
v514
o0
o39
v130
o39
v131
V643 0 1
o3
v515
o0
o39
v131
o39
v132
V644 0 1
o3
v516
o0
o39
v132
o39
v133
V645 0 1
o3
v517
o0
o39
v133
o39
v134
V646 0 1
o3
v518
o0
o39
v134
o39
v135
V647 0 1
o3
v519
o0
o39
v135
o39
v136
V648 0 1
o3
v520
o0
o39
v136
o39
v137
V649 0 1
o3
v521
o0
o39
v137
o39
v138
V650 0 1
o3
v522
o0
o39
v138
o39
v139
V651 0 1
o3
v523
o0
o39
v139
o39
v140
V652 0 1
o3
v524
o0
o39
v140
o39
v141
V653 0 1
o3
v525
o0
o39
v141
o39
v142
V654 0 1
o3
v526
o0
o39
v142
o39
v143
V655 0 1
o3
v527
o0
o39
v143
o39
v144
V656 0 1
o3
v528
o0
o39
v144
o39
v145
V657 0 1
o3
v529
o0
o39
v145
o39
v146
V658 0 1
o3
v530
o0
o39
v146
o39
v147
V659 0 1
o3
v531
o0
o39
v147
o39
v148
V660 0 1
o3
v532
o0
o39
v148
o39
v149
V661 0 1
o3
v533
o0
o39
v149
o39
v150
V662 0 1
o3
v534
o0
o39
v150
o39
v151
V663 0 1
o3
v535
o0
o39
v151
o39
v152
V664 0 1
o3
v536
o0
o39
v152
o39
v153
V665 0 1
o3
v537
o0
o39
v153
o39
v154
V666 0 1
o3
v538
o0
o39
v154
o39
v155
V667 0 1
o3
v539
o0
o39
v155
o39
v156
V668 0 1
o3
v540
o0
o39
v156
o39
v157
V669 0 1
o3
v541
o0
o39
v157
o39
v158
V670 0 1
o3
v542
o0
o39
v158
o39
v159
V671 0 1
o3
v543
o0
o39
v159
o39
v160
V672 0 1
o3
v544
o0
o39
v160
o39
v161
V673 0 1
o3
v545
o0
o39
v161
o39
v162
V674 0 1
o3
v546
o0
o39
v162
o39
v163
V675 0 1
o3
v547
o0
o39
v163
o39
v164
V676 0 1
o3
v548
o0
o39
v164
o39
v165
V677 0 1
o3
v549
o0
o39
v165
o39
v166
V678 0 1
o3
v550
o0
o39
v166
o39
v167
V679 0 1
o3
v551
o0
o39
v167
o39
v168
V680 0 1
o3
v552
o0
o39
v168
o39
v169
V681 0 1
o3
v553
o0
o39
v169
o39
v170
V682 0 1
o3
v554
o0
o39
v170
o39
v171
V683 0 1
o3
v555
o0
o39
v171
o39
v172
V684 0 1
o3
v556
o0
o39
v172
o39
v173
V685 0 1
o3
v557
o0
o39
v173
o39
v174
V686 0 1
o3
v558
o0
o39
v174
o39
v175
V687 0 1
o3
v559
o0
o39
v175
o39
v176
V688 0 1
o3
v560
o0
o39
v176
o39
v177
V689 0 1
o3
v561
o0
o39
v177
o39
v178
V690 0 1
o3
v562
o0
o39
v178
o39
v179
V691 0 1
o3
v563
o0
o39
v179
o39
v180
V692 0 1
o3
v564
o0
o39
v180
o39
v181
V693 0 1
o3
v565
o0
o39
v181
o39
v182
V694 0 1
o3
v566
o0
o39
v182
o39
v183
V695 0 1
o3
v567
o0
o39
v183
o39
v184
V696 0 1
o3
v568
o0
o39
v184
o39
v185
V697 0 1
o3
v569
o0
o39
v185
o39
v186
V698 0 1
o3
v570
o0
o39
v186
o39
v187
V699 0 1
o3
v571
o0
o39
v187
o39
v188
V700 0 1
o3
v572
o0
o39
v188
o39
v189
V701 0 1
o3
v573
o0
o39
v189
o39
v190
V702 0 1
o3
v574
o0
o39
v190
o39
v191
V703 0 1
o3
v575
o0
o39
v191
o39
v192
V704 0 1
o3
v576
o0
o39
v192
o39
v193
V705 0 1
o3
v577
o0
o39
v193
o39
v194
V706 0 1
o3
v578
o0
o39
v194
o39
v195
V707 0 1
o3
v579
o0
o39
v195
o39
v196
V708 0 1
o3
v580
o0
o39
v196
o39
v197
V709 0 1
o3
v581
o0
o39
v197
o39
v198
V710 0 1
o3
v582
o0
o39
v198
o39
v199
V711 0 1
o3
v583
o0
o39
v199
o39
v200
V712 0 1
o3
v584
o0
o39
v200
o39
v201
V713 0 1
o3
v585
o0
o39
v201
o39
v202
V714 0 1
o3
v586
o0
o39
v202
o39
v203
V715 0 1
o3
v587
o0
o39
v203
o39
v204
V716 0 1
o3
v588
o0
o39
v204
o39
v205
V717 0 1
o3
v589
o0
o39
v205
o39
v206
V718 0 1
o3
v590
o0
o39
v206
o39
v207
V719 0 1
o3
v591
o0
o39
v207
o39
v208
V720 0 1
o3
v592
o0
o39
v208
o39
v209
V721 0 1
o3
v593
o0
o39
v209
o39
v210
V722 0 1
o3
v594
o0
o39
v210
o39
v211
V723 0 1
o3
v595
o0
o39
v211
o39
v212
V724 0 1
o3
v596
o0
o39
v212
o39
v213
V725 0 1
o3
v597
o0
o39
v213
o39
v214
V726 0 1
o3
v598
o0
o39
v214
o39
v215
V727 0 1
o3
v599
o0
o39
v215
o39
v216
V728 0 1
o3
v600
o0
o39
v216
o39
v217
V729 0 1
o3
v601
o0
o39
v217
o39
v218
V730 0 1
o3
v602
o0
o39
v218
o39
v219
V731 0 1
o3
v603
o0
o39
v219
o39
v220
V732 0 1
o3
v604
o0
o39
v220
o39
v221
V733 0 1
o3
v605
o0
o39
v221
o39
v222
V734 0 1
o3
v606
o0
o39
v222
o39
v223
V735 0 1
o3
v607
o0
o39
v223
o39
v224
V736 0 1
o3
v608
o0
o39
v224
o39
v225
V737 0 1
o3
v609
o0
o39
v225
o39
v226
V738 0 1
o3
v610
o0
o39
v226
o39
v227
V739 0 1
o3
v611
o0
o39
v227
o39
v228
V740 0 1
o3
v612
o0
o39
v228
o39
v229
V741 0 1
o3
v613
o0
o39
v229
o39
v230
V742 0 1
o3
v614
o0
o39
v230
o39
v231
V743 0 1
o3
v615
o0
o39
v231
o39
v232
V744 0 1
o3
v616
o0
o39
v232
o39
v233
V745 0 1
o3
v617
o0
o39
v233
o39
v234
V746 0 1
o3
v618
o0
o39
v234
o39
v235
V747 0 1
o3
v619
o0
o39
v235
o39
v236
V748 0 1
o3
v620
o0
o39
v236
o39
v237
V749 0 1
o3
v621
o0
o39
v237
o39
v238
V750 0 1
o3
v622
o0
o39
v238
o39
v239
V751 0 1
o3
v623
o0
o39
v239
o39
v240
V752 0 1
o3
v624
o0
o39
v240
o39
v241
V753 0 1
o3
v625
o0
o39
v241
o39
v242
V754 0 1
o3
v626
o0
o39
v242
o39
v243
V755 0 1
o3
v627
o0
o39
v243
o39
v244
V756 0 1
o3
v628
o0
o39
v244
o39
v245
V757 0 1
o3
v629
o0
o39
v245
o39
v246
V758 0 1
o3
v630
o0
o39
v246
o39
v247
V759 0 1
o3
v631
o0
o39
v247
o39
v248
V760 0 1
o3
v632
o0
o39
v248
o39
v249
V761 0 1
o3
v633
o0
o39
v249
o39
v250
V762 0 1
o3
v634
o0
o39
v250
o39
v251
V763 0 1
o3
v635
o0
o39
v251
o39
v252
V764 0 1
o3
v636
o0
o39
v252
o39
v253
V765 0 1
o3
v637
o0
n1
o39
v253
O0 0
o54
128
v765
v764
v763
v762
v761
v760
v759
v758
v757
v756
v755
v754
v753
v752
v751
v750
v749
v748
v747
v746
v745
v744
v743
v742
v741
v740
v739
v738
v737
v736
v735
v734
v733
v732
v731
v730
v729
v728
v727
v726
v725
v724
v723
v722
v721
v720
v719
v718
v717
v716
v715
v714
v713
v712
v711
v710
v709
v708
v707
v706
v705
v704
v703
v702
v701
v700
v699
v698
v697
v696
v695
v694
v693
v692
v691
v690
v689
v688
v687
v686
v685
v684
v683
v682
v681
v680
v679
v678
v677
v676
v675
v674
v673
v672
v671
v670
v669
v668
v667
v666
v665
v664
v663
v662
v661
v660
v659
v658
v657
v656
v655
v654
v653
v652
v651
v650
v649
v648
v647
v646
v645
v644
v643
v642
v641
v640
v639
v638
x254
0 0.0390625
1 0.078125
2 0.1171875
3 0.15625
4 0.1953125
5 0.234375
6 0.2734375
7 0.3125
8 0.3515625
9 0.390625
10 0.4296875
11 0.46875
12 0.5078125
13 0.546875
14 0.5859375
15 0.625
16 0.6640625
17 0.703125
18 0.7421875
19 0.78125
20 0.8203125
21 0.859375
22 0.8984375
23 0.9375
24 0.9765625
25 1.015625
26 1.0546875
27 1.09375
28 1.1328125
29 1.171875
30 1.2109375
31 1.25
32 1.2890625
33 1.328125
34 1.3671875
35 1.40625
36 1.4453125
37 1.484375
38 1.5234375
39 1.5625
40 1.6015625
41 1.640625
42 1.6796875
43 1.71875
44 1.7578125
45 1.796875
46 1.8359375
47 1.875
48 1.9140625
49 1.953125
50 1.9921875
51 2.03125
52 2.0703125
53 2.109375
54 2.1484375
55 2.1875
56 2.2265625
57 2.265625
58 2.3046875
59 2.34375
60 2.3828125
61 2.421875
62 2.4609375
63 2.5
64 2.5390625
65 2.578125
66 2.6171875
67 2.65625
68 2.6953125
69 2.734375
70 2.7734375
71 2.8125
72 2.8515625
73 2.890625
74 2.9296875
75 2.96875
76 3.0078125
77 3.046875
78 3.0859375
79 3.125
80 3.1640625
81 3.203125
82 3.2421875
83 3.28125
84 3.3203125
85 3.359375
86 3.3984375
87 3.4375
88 3.4765625
89 3.515625
90 3.5546875
91 3.59375
92 3.6328125
93 3.671875
94 3.7109375
95 3.75
96 3.7890625
97 3.828125
98 3.8671875
99 3.90625
100 3.9453125
101 3.984375
102 4.0234375
103 4.0625
104 4.1015625
105 4.140625
106 4.1796875
107 4.21875
108 4.2578125
109 4.296875
110 4.3359375
111 4.375
112 4.4140625
113 4.453125
114 4.4921875
115 4.53125
116 4.5703125
117 4.609375
118 4.6484375
119 4.6875
120 4.7265625
121 4.765625
122 4.8046875
123 4.84375
124 4.8828125
125 4.921875
126 4.9609375
127 0.0078125
128 0.015625
129 0.0234375
130 0.03125
131 0.0390625
132 0.046875
133 0.0546875
134 0.0625
135 0.0703125
136 0.078125
137 0.0859375
138 0.09375
139 0.1015625
140 0.109375
141 0.1171875
142 0.125
143 0.1328125
144 0.140625
145 0.1484375
146 0.15625
147 0.1640625
148 0.171875
149 0.1796875
150 0.1875
151 0.1953125
152 0.203125
153 0.2109375
154 0.21875
155 0.2265625
156 0.234375
157 0.2421875
158 0.25
159 0.2578125
160 0.265625
161 0.2734375
162 0.28125
163 0.2890625
164 0.296875
165 0.3046875
166 0.3125
167 0.3203125
168 0.328125
169 0.3359375
170 0.34375
171 0.3515625
172 0.359375
173 0.3671875
174 0.375
175 0.3828125
176 0.390625
177 0.3984375
178 0.40625
179 0.4140625
180 0.421875
181 0.4296875
182 0.4375
183 0.4453125
184 0.453125
185 0.4609375
186 0.46875
187 0.4765625
188 0.484375
189 0.4921875
190 0.5
191 0.5078125
192 0.515625
193 0.5234375
194 0.53125
195 0.5390625
196 0.546875
197 0.5546875
198 0.5625
199 0.5703125
200 0.578125
201 0.5859375
202 0.59375
203 0.6015625
204 0.609375
205 0.6171875
206 0.625
207 0.6328125
208 0.640625
209 0.6484375
210 0.65625
211 0.6640625
212 0.671875
213 0.6796875
214 0.6875
215 0.6953125
216 0.703125
217 0.7109375
218 0.71875
219 0.7265625
220 0.734375
221 0.7421875
222 0.75
223 0.7578125
224 0.765625
225 0.7734375
226 0.78125
227 0.7890625
228 0.796875
229 0.8046875
230 0.8125
231 0.8203125
232 0.828125
233 0.8359375
234 0.84375
235 0.8515625
236 0.859375
237 0.8671875
238 0.875
239 0.8828125
240 0.890625
241 0.8984375
242 0.90625
243 0.9140625
244 0.921875
245 0.9296875
246 0.9375
247 0.9453125
248 0.953125
249 0.9609375
250 0.96875
251 0.9765625
252 0.984375
253 0.9921875
b
3
3
3
3
3
3
3
3
3
3
3
3
3
3
3
3
3
3
3
3
3
3
3
3
3
3
3
3
3
3
3
3
3
3
3
3
3
3
3
3
3
3
3
3
3
3
3
3
3
3
3
3
3
3
3
3
3
3
3
3
3
3
3
3
3
3
3
3
3
3
3
3
3
3
3
3
3
3
3
3
3
3
3
3
3
3
3
3
3
3
3
3
3
3
3
3
3
3
3
3
3
3
3
3
3
3
3
3
3
3
3
3
3
3
3
3
3
3
3
3
3
3
3
3
3
3
3
3
3
3
3
3
3
3
3
3
3
3
3
3
3
3
3
3
3
3
3
3
3
3
3
3
3
3
3
3
3
3
3
3
3
3
3
3
3
3
3
3
3
3
3
3
3
3
3
3
3
3
3
3
3
3
3
3
3
3
3
3
3
3
3
3
3
3
3
3
3
3
3
3
3
3
3
3
3
3
3
3
3
3
3
3
3
3
3
3
3
3
3
3
3
3
3
3
3
3
3
3
3
3
3
3
3
3
3
3
3
3
3
3
3
3
3
3
3
3
3
3
3
3
3
3
3
3
k253
0
0
0
0
0
0
0
0
0
0
0
0
0
0
0
0
0
0
0
0
0
0
0
0
0
0
0
0
0
0
0
0
0
0
0
0
0
0
0
0
0
0
0
0
0
0
0
0
0
0
0
0
0
0
0
0
0
0
0
0
0
0
0
0
0
0
0
0
0
0
0
0
0
0
0
0
0
0
0
0
0
0
0
0
0
0
0
0
0
0
0
0
0
0
0
0
0
0
0
0
0
0
0
0
0
0
0
0
0
0
0
0
0
0
0
0
0
0
0
0
0
0
0
0
0
0
0
0
0
0
0
0
0
0
0
0
0
0
0
0
0
0
0
0
0
0
0
0
0
0
0
0
0
0
0
0
0
0
0
0
0
0
0
0
0
0
0
0
0
0
0
0
0
0
0
0
0
0
0
0
0
0
0
0
0
0
0
0
0
0
0
0
0
0
0
0
0
0
0
0
0
0
0
0
0
0
0
0
0
0
0
0
0
0
0
0
0
0
0
0
0
0
0
0
0
0
0
0
0
0
0
0
0
0
0
0
0
0
0
0
0
0
0
0
0
0
0
0
0
0
0
0
0
G0 254
0 0
1 0
2 0
3 0
4 0
5 0
6 0
7 0
8 0
9 0
10 0
11 0
12 0
13 0
14 0
15 0
16 0
17 0
18 0
19 0
20 0
21 0
22 0
23 0
24 0
25 0
26 0
27 0
28 0
29 0
30 0
31 0
32 0
33 0
34 0
35 0
36 0
37 0
38 0
39 0
40 0
41 0
42 0
43 0
44 0
45 0
46 0
47 0
48 0
49 0
50 0
51 0
52 0
53 0
54 0
55 0
56 0
57 0
58 0
59 0
60 0
61 0
62 0
63 0
64 0
65 0
66 0
67 0
68 0
69 0
70 0
71 0
72 0
73 0
74 0
75 0
76 0
77 0
78 0
79 0
80 0
81 0
82 0
83 0
84 0
85 0
86 0
87 0
88 0
89 0
90 0
91 0
92 0
93 0
94 0
95 0
96 0
97 0
98 0
99 0
100 0
101 0
102 0
103 0
104 0
105 0
106 0
107 0
108 0
109 0
110 0
111 0
112 0
113 0
114 0
115 0
116 0
117 0
118 0
119 0
120 0
121 0
122 0
123 0
124 0
125 0
126 0
127 0
128 0
129 0
130 0
131 0
132 0
133 0
134 0
135 0
136 0
137 0
138 0
139 0
140 0
141 0
142 0
143 0
144 0
145 0
146 0
147 0
148 0
149 0
150 0
151 0
152 0
153 0
154 0
155 0
156 0
157 0
158 0
159 0
160 0
161 0
162 0
163 0
164 0
165 0
166 0
167 0
168 0
169 0
170 0
171 0
172 0
173 0
174 0
175 0
176 0
177 0
178 0
179 0
180 0
181 0
182 0
183 0
184 0
185 0
186 0
187 0
188 0
189 0
190 0
191 0
192 0
193 0
194 0
195 0
196 0
197 0
198 0
199 0
200 0
201 0
202 0
203 0
204 0
205 0
206 0
207 0
208 0
209 0
210 0
211 0
212 0
213 0
214 0
215 0
216 0
217 0
218 0
219 0
220 0
221 0
222 0
223 0
224 0
225 0
226 0
227 0
228 0
229 0
230 0
231 0
232 0
233 0
234 0
235 0
236 0
237 0
238 0
239 0
240 0
241 0
242 0
243 0
244 0
245 0
246 0
247 0
248 0
249 0
250 0
251 0
252 0
253 0
